examples/Knap/data/easy/input60_2.mps
NAME          input60_
ROWS
 L  R0001
 N  R0002
COLUMNS
    INT1      'MARKER'                 'INTORG'
    C0001     R0001     53
    C0001     R0002     -63
    C0002     R0001     30
    C0002     R0002     -40
    C0003     R0001     86
    C0003     R0002     -96
    C0004     R0001     80
    C0004     R0002     -90
    C0005     R0001     82
    C0005     R0002     -92
    C0006     R0001     38
    C0006     R0002     -48
    C0007     R0001     37
    C0007     R0002     -47
    C0008     R0001     19
    C0008     R0002     -29
    C0009     R0001     33
    C0009     R0002     -43
    C0010     R0001     55
    C0010     R0002     -65
    C0011     R0001     34
    C0011     R0002     -44
    C0012     R0001     74
    C0012     R0002     -84
    C0013     R0001     99
    C0013     R0002     -109
    C0014     R0001     86
    C0014     R0002     -96
    C0015     R0001     53
    C0015     R0002     -63
    C0016     R0001     55
    C0016     R0002     -65
    C0017     R0001     35
    C0017     R0002     -45
    C0018     R0001     1
    C0018     R0002     -11
    C0019     R0001     12
    C0019     R0002     -22
    C0020     R0001     51
    C0020     R0002     -61
    C0021     R0001     47
    C0021     R0002     -57
    C0022     R0001     24
    C0022     R0002     -34
    C0023     R0001     82
    C0023     R0002     -92
    C0024     R0001     97
    C0024     R0002     -107
    C0025     R0001     91
    C0025     R0002     -101
    C0026     R0001     40
    C0026     R0002     -50
    C0027     R0001     73
    C0027     R0002     -83
    C0028     R0001     66
    C0028     R0002     -76
    C0029     R0001     86
    C0029     R0002     -96
    C0030     R0001     80
    C0030     R0002     -90
    C0031     R0001     83
    C0031     R0002     -93
    C0032     R0001     39
    C0032     R0002     -49
    C0033     R0001     11
    C0033     R0002     -21
    C0034     R0001     70
    C0034     R0002     -80
    C0035     R0001     20
    C0035     R0002     -30
    C0036     R0001     92
    C0036     R0002     -102
    C0037     R0001     9
    C0037     R0002     -19
    C0038     R0001     57
    C0038     R0002     -67
    C0039     R0001     12
    C0039     R0002     -22
    C0040     R0001     42
    C0040     R0002     -52
    C0041     R0001     12
    C0041     R0002     -22
    C0042     R0001     45
    C0042     R0002     -55
    C0043     R0001     16
    C0043     R0002     -26
    C0044     R0001     11
    C0044     R0002     -21
    C0045     R0001     32
    C0045     R0002     -42
    C0046     R0001     69
    C0046     R0002     -79
    C0047     R0001     66
    C0047     R0002     -76
    C0048     R0001     66
    C0048     R0002     -76
    C0049     R0001     70
    C0049     R0002     -80
    C0050     R0001     77
    C0050     R0002     -87
    C0051     R0001     17
    C0051     R0002     -27
    C0052     R0001     17
    C0052     R0002     -27
    C0053     R0001     1
    C0053     R0002     -11
    C0054     R0001     99
    C0054     R0002     -109
    C0055     R0001     15
    C0055     R0002     -25
    C0056     R0001     92
    C0056     R0002     -102
    C0057     R0001     39
    C0057     R0002     -49
    C0058     R0001     87
    C0058     R0002     -97
    C0059     R0001     59
    C0059     R0002     -69
    C0060     R0001     26
    C0060     R0002     -36
    INT1END   'MARKER'                 'INTEND'
RHS
    B         R0001     914
BOUNDS
 UP BOUND     C0001     1
 UP BOUND     C0002     1
 UP BOUND     C0003     1
 UP BOUND     C0004     1
 UP BOUND     C0005     1
 UP BOUND     C0006     1
 UP BOUND     C0007     1
 UP BOUND     C0008     1
 UP BOUND     C0009     1
 UP BOUND     C0010     1
 UP BOUND     C0011     1
 UP BOUND     C0012     1
 UP BOUND     C0013     1
 UP BOUND     C0014     1
 UP BOUND     C0015     1
 UP BOUND     C0016     1
 UP BOUND     C0017     1
 UP BOUND     C0018     1
 UP BOUND     C0019     1
 UP BOUND     C0020     1
 UP BOUND     C0021     1
 UP BOUND     C0022     1
 UP BOUND     C0023     1
 UP BOUND     C0024     1
 UP BOUND     C0025     1
 UP BOUND     C0026     1
 UP BOUND     C0027     1
 UP BOUND     C0028     1
 UP BOUND     C0029     1
 UP BOUND     C0030     1
 UP BOUND     C0031     1
 UP BOUND     C0032     1
 UP BOUND     C0033     1
 UP BOUND     C0034     1
 UP BOUND     C0035     1
 UP BOUND     C0036     1
 UP BOUND     C0037     1
 UP BOUND     C0038     1
 UP BOUND     C0039     1
 UP BOUND     C0040     1
 UP BOUND     C0041     1
 UP BOUND     C0042     1
 UP BOUND     C0043     1
 UP BOUND     C0044     1
 UP BOUND     C0045     1
 UP BOUND     C0046     1
 UP BOUND     C0047     1
 UP BOUND     C0048     1
 UP BOUND     C0049     1
 UP BOUND     C0050     1
 UP BOUND     C0051     1
 UP BOUND     C0052     1
 UP BOUND     C0053     1
 UP BOUND     C0054     1
 UP BOUND     C0055     1
 UP BOUND     C0056     1
 UP BOUND     C0057     1
 UP BOUND     C0058     1
 UP BOUND     C0059     1
 UP BOUND     C0060     1
ENDATA
