examples/Knap/data/easy/input60_2.txt
ITEM 53 63
ITEM 30 40
ITEM 86 96
ITEM 80 90
ITEM 82 92
ITEM 38 48
ITEM 37 47
ITEM 19 29
ITEM 33 43
ITEM 55 65
ITEM 34 44
ITEM 74 84
ITEM 99 109
ITEM 86 96
ITEM 53 63
ITEM 55 65
ITEM 35 45
ITEM 1 11
ITEM 12 22
ITEM 51 61
ITEM 47 57
ITEM 24 34
ITEM 82 92
ITEM 97 107
ITEM 91 101
ITEM 40 50
ITEM 73 83
ITEM 66 76
ITEM 86 96
ITEM 80 90
ITEM 83 93
ITEM 39 49
ITEM 11 21
ITEM 70 80
ITEM 20 30
ITEM 92 102
ITEM 9 19
ITEM 57 67
ITEM 12 22
ITEM 42 52
ITEM 12 22
ITEM 45 55
ITEM 16 26
ITEM 11 21
ITEM 32 42
ITEM 69 79
ITEM 66 76
ITEM 66 76
ITEM 70 80
ITEM 77 87
ITEM 17 27
ITEM 17 27
ITEM 1 11
ITEM 99 109
ITEM 15 25
ITEM 92 102
ITEM 39 49
ITEM 87 97
ITEM 59 69
ITEM 26 36
CAPACITY 914
